language ESSENCE 1.2.0

letting Character be new type enum {a,b,c,d}

letting maxDist be 1

letting codeWordLength be 6

letting numOfCodeWords be 5

letting minDist be 2

letting dist be function( 
(a,a) --> 0,
(a,b) --> 1,
(a,c) --> 1,
(a,d) --> 1,
(b,a) --> 1,
(b,b) --> 0,
(b,c) --> 1,
(b,d) --> 1,
(c,a) --> 1,
(c,b) --> 1,
(c,c) --> 0,
(c,d) --> 1,
(d,a) --> 1,                
(d,b) --> 1,
(d,c) --> 1,
(d,d) --> 0 )


                                       
